c Generated tree graph
p edge 275 274
e 1 175
e 1 256
e 2 95
e 2 193
e 2 202
e 3 26
e 3 102
e 3 186
e 3 211
e 3 223
e 4 155
e 5 90
e 6 62
e 6 184
e 7 48
e 7 131
e 8 173
e 9 87
e 10 163
e 11 181
e 12 44
e 12 219
e 13 83
e 14 38
e 15 133
e 16 93
e 16 132
e 16 134
e 17 222
e 18 102
e 19 34
e 19 171
e 20 37
e 20 77
e 20 86
e 21 39
e 22 50
e 22 107
e 22 164
e 23 243
e 24 181
e 24 225
e 24 233
e 25 161
e 25 179
e 25 227
e 26 193
e 27 78
e 27 225
e 28 130
e 29 131
e 29 137
e 29 177
e 29 275
e 30 33
e 30 97
e 30 268
e 31 139
e 31 154
e 31 210
e 31 257
e 31 260
e 32 71
e 32 126
e 33 103
e 33 191
e 34 248
e 35 185
e 36 167
e 36 216
e 38 211
e 39 75
e 40 135
e 40 173
e 40 224
e 40 259
e 41 146
e 42 193
e 43 112
e 43 273
e 45 131
e 45 207
e 45 242
e 46 78
e 46 256
e 47 93
e 47 167
e 47 205
e 47 269
e 49 51
e 49 94
e 49 270
e 52 178
e 52 199
e 53 88
e 54 72
e 54 92
e 54 219
e 55 172
e 56 94
e 57 168
e 58 92
e 58 261
e 59 76
e 59 125
e 59 224
e 60 76
e 61 64
e 61 69
e 61 192
e 62 162
e 62 252
e 63 106
e 63 199
e 64 104
e 65 74
e 65 248
e 66 185
e 66 240
e 67 93
e 67 154
e 68 150
e 68 274
e 70 71
e 71 105
e 71 136
e 72 112
e 73 151
e 73 158
e 74 221
e 75 230
e 75 271
e 76 159
e 77 165
e 78 246
e 78 255
e 79 109
e 79 216
e 80 233
e 81 83
e 82 167
e 83 236
e 84 204
e 85 165
e 85 270
e 87 142
e 87 226
e 88 163
e 89 220
e 89 247
e 90 207
e 91 125
e 91 145
e 91 222
e 96 113
e 98 247
e 98 275
e 99 140
e 100 191
e 101 157
e 102 166
e 102 214
e 103 206
e 104 267
e 105 269
e 107 123
e 108 241
e 109 119
e 109 265
e 110 144
e 110 151
e 110 172
e 110 189
e 111 121
e 111 167
e 113 267
e 114 139
e 114 246
e 115 190
e 115 234
e 116 261
e 117 165
e 117 244
e 117 263
e 118 177
e 120 166
e 122 141
e 123 218
e 124 201
e 125 143
e 126 184
e 126 245
e 127 203
e 127 209
e 128 254
e 129 136
e 130 159
e 133 147
e 133 272
e 136 159
e 136 200
e 137 148
e 137 212
e 137 253
e 138 160
e 138 257
e 139 198
e 139 249
e 140 219
e 141 155
e 141 265
e 142 172
e 142 183
e 143 261
e 144 238
e 146 242
e 147 166
e 149 254
e 150 194
e 152 185
e 153 241
e 155 243
e 156 196
e 157 250
e 157 275
e 159 187
e 163 244
e 164 183
e 164 232
e 165 194
e 165 241
e 168 179
e 169 198
e 170 191
e 172 195
e 174 179
e 175 248
e 176 179
e 177 204
e 179 197
e 180 257
e 180 264
e 182 233
e 183 234
e 183 247
e 183 261
e 185 229
e 186 196
e 188 259
e 191 215
e 192 226
e 194 260
e 197 209
e 197 231
e 198 199
e 199 236
e 201 233
e 208 271
e 209 275
e 213 232
e 215 221
e 217 226
e 217 251
e 217 262
e 222 235
e 223 244
e 225 266
e 228 255
e 229 246
e 230 245
e 237 257
e 239 256
e 245 254
e 258 260
